Starting solution of the Linear programming relaxation problem using Primal Simplex

Coin0506I Presolve 21662 (-21621) rows, 820 (0) columns and 44882 (-43242) elements
Clp1000I sum of infeasibilities 2.73265e-05 - average 1.26149e-09, 605 fixed columns
Coin0506I Presolve 1141 (-20521) rows, 215 (-605) columns and 2630 (-42252) elements
Clp0006I 0  Obj 861.71552 Primal inf 4.4081187e-06 (12) Dual inf 6.2000001e+09 (203)
Clp0029I End of values pass after 215 iterations
Clp0014I Perturbing problem by 0.001% of 1.0000001 - largest nonzero change 2.9976735e-05 ( 0.0014988367%) - largest zero change 2.8834042e-05
Clp0000I Optimal - objective value 859.95356
Clp0000I Optimal - objective value 859.95356
Coin0511I After Postsolve, objective 859.95356, infeasibilities - dual 0 (0), primal 0 (0)
Clp0006I 0  Obj 859.95356
Clp0000I Optimal - objective value 859.95356
Clp0000I Optimal - objective value 859.95356
Clp0000I Optimal - objective value 859.95356
Coin0511I After Postsolve, objective 859.95356, infeasibilities - dual 0 (0), primal 0 (0)
Clp0032I Optimal objective 859.9535643 - 0 iterations time 0.632, Presolve 0.03, Idiot 0.60

Starting MIP optimization
Cbc0045I MIPStart provided solution with cost 1017.74
Cbc0012I Integer solution of 1017.7375 found by Reduced search after 0 iterations and 0 nodes (0.11 seconds)
Cbc0031I 28 added rows had average density of 23.071429
Cbc0013I At root node, 28 cuts changed objective from 859.95356 to 935.88294 in 2 passes
Cbc0014I Cut generator 0 (LazyConstraints) - 3 row cuts average 102.3 elements, 0 column cuts (0 active)  in 0.027 seconds - new frequency is 1
Cbc0014I Cut generator 1 (Probing) - 41 row cuts average 3.0 elements, 0 column cuts (0 active)  in 0.059 seconds - new frequency is 1
Cbc0014I Cut generator 2 (Gomory) - 16 row cuts average 251.7 elements, 0 column cuts (0 active)  in 0.013 seconds - new frequency is 1
Cbc0014I Cut generator 3 (Knapsack) - 0 row cuts average 0.0 elements, 0 column cuts (0 active)  in 0.030 seconds - new frequency is -100
Cbc0014I Cut generator 4 (MixedIntegerRounding2) - 0 row cuts average 0.0 elements, 0 column cuts (0 active)  in 0.010 seconds - new frequency is -100
Cbc0014I Cut generator 6 (TwoMirCuts) - 31 row cuts average 108.9 elements, 0 column cuts (0 active)  in 0.038 seconds - new frequency is 1
Cbc0014I Cut generator 7 (ZeroHalf) - 0 row cuts average 0.0 elements, 0 column cuts (0 active)  in 1.428 seconds - new frequency is -100
Cbc0010I After 5 nodes, 6 on tree, 1017.7375 best solution, best possible 935.88294 (2.67 seconds)
Cbc0010I After 12 nodes, 10 on tree, 1017.7375 best solution, best possible 935.88294 (3.37 seconds)
Cbc0010I After 30 nodes, 9 on tree, 1017.7375 best solution, best possible 935.88294 (4.13 seconds)
Cbc0010I After 42 nodes, 11 on tree, 1017.7375 best solution, best possible 935.88294 (4.84 seconds)
Cbc0038I Full problem 43311 rows 820 columns, reduced to 12068 rows 643 columns
Cbc0044I Reduced cost fixing - 12068 rows, 643 columns - restarting search
Cbc0012I Integer solution of 1017.7375 found by Previous solution after 0 iterations and 0 nodes (5.37 seconds)
Cbc0031I 62 added rows had average density of 29.548387
Cbc0013I At root node, 62 cuts changed objective from 859.95356 to 988.49194 in 10 passes
Cbc0014I Cut generator 0 (LazyConstraints) - 0 row cuts average 0.0 elements, 0 column cuts (0 active)  in 0.035 seconds - new frequency is 1
Cbc0014I Cut generator 1 (Probing) - 148 row cuts average 3.0 elements, 2 column cuts (2 active)  in 0.125 seconds - new frequency is 1
Cbc0014I Cut generator 2 (Gomory) - 18 row cuts average 177.3 elements, 0 column cuts (0 active)  in 0.043 seconds - new frequency is 1
Cbc0014I Cut generator 3 (Knapsack) - 0 row cuts average 0.0 elements, 0 column cuts (0 active)  in 0.025 seconds - new frequency is -100
Cbc0014I Cut generator 4 (MixedIntegerRounding2) - 0 row cuts average 0.0 elements, 0 column cuts (0 active)  in 0.037 seconds - new frequency is -100
Cbc0014I Cut generator 5 (FlowCover) - 0 row cuts average 0.0 elements, 0 column cuts (0 active)  in 0.004 seconds - new frequency is -100
Cbc0014I Cut generator 6 (TwoMirCuts) - 86 row cuts average 196.5 elements, 0 column cuts (0 active)  in 0.107 seconds - new frequency is 1
Cbc0014I Cut generator 7 (ZeroHalf) - 1 row cuts average 5.0 elements, 0 column cuts (0 active)  in 1.257 seconds - new frequency is -100
Cbc0014I Cut generator 9 (Stored from first) - 36 row cuts average 18.4 elements, 0 column cuts (0 active)
Cbc0014I Cut generator 10 (Clique) - 57 row cuts average 14.0 elements, 0 column cuts (0 active)  in 0.003 seconds - new frequency is -100
Cbc0010I After 0 nodes, 1 on tree, 1017.7375 best solution, best possible 988.49194 (7.27 seconds)
Cbc0010I After 18 nodes, 1 on tree, 1017.7375 best solution, best possible 995.31108 (8.31 seconds)
Cbc0004I Integer solution of 1017.5434 found after 3383 iterations and 39 nodes (9.08 seconds)
Cbc0016I Integer solution of 1016.4782 found by strong branching after 3777 iterations and 47 nodes (9.22 seconds)
Cbc0010I After 53 nodes, 6 on tree, 1016.4782 best solution, best possible 995.31108 (9.32 seconds)
Cbc0001I Search completed - best objective 1016.478236626135, took 5080 iterations and 70 nodes (9.65 seconds)
Cbc003Modell wird erstellt...
Suche Startlösung...
None
Suche optimale Lösung...
OptimizationStatus.INFEASIBLE
C:\Users\Philip\Documents\programmieren\python\bwinf41-2\weniger-krumme-touren\beispiele\random\40\402.txt
Startlösung ist optimal!
2I Strong branching done 692 times (16659 iterations), fathomed 3 nodes and fixed 24 variables
Cbc0035I Maximum depth 15, 1487 variables fixed on reduced cost
Cbc0038I LazyConstraints was tried 57 times and created 0 cuts of which 0 were active after adding rounds of cuts (0.203 seconds)
Cbc0038I Probing was tried 56 times and created 492 cuts of which 0 were active after adding rounds of cuts (0.174 seconds)
Cbc0038I Gomory was tried 53 times and created 19 cuts of which 0 were active after adding rounds of cuts (0.098 seconds)
Cbc0038I Knapsack was tried 10 times and created 0 cuts of which 0 were active after adding rounds of cuts (0.025 seconds)
Cbc0038I MixedIntegerRounding2 was tried 10 times and created 0 cuts of which 0 were active after adding rounds of cuts (0.037 seconds)
Cbc0038I FlowCover was tried 10 times and created 0 cuts of which 0 were active after adding rounds of cuts (0.004 seconds)
Cbc0038I TwoMirCuts was tried 53 times and created 97 cuts of which 0 were active after adding rounds of cuts (0.268 seconds)
Cbc0038I ZeroHalf was tried 10 times and created 1 cuts of which 0 were active after adding rounds of cuts (1.257 seconds)
Cbc0038I Stored from first was tried 53 times and created 44 cuts of which 0 were active after adding rounds of cuts (0.000 seconds)
Cbc0038I Clique was tried 10 times and created 57 cuts of which 0 were active after adding rounds of cuts (0.003 seconds)
Cbc0001I Search completed - best objective 1017.737500743696, took 7550 iterations and 120 nodes (9.74 seconds)
Cbc0032I Strong branching done 694 times (13862 iterations), fathomed 10 nodes and fixed 33 variables
Cbc0035I Maximum depth 13, 1917 variables fixed on reduced cost
Total time (CPU seconds):       9.80   (Wallclock seconds):       9.80

